c 
p cnf 120 201
-18 21 22 0
-18 21 -22 0
-18 -21 22 0
-18 -21 -22 0
8 15 23 0
8 15 -23 0
7 -19 -5 0
20 -1 24 0
20 -1 -24 0
-3 -19 25 0
-25 16 5 0
12 7 26 0
12 7 -26 0
-18 1 27 0
-27 -8 28 0
-28 5 -9 0
-13 9 29 0
-29 15 5 0
-8 30 31 0
-8 30 -31 0
-8 -30 31 0
-8 -30 -31 0
-10 12 32 0
-10 12 -32 0
18 33 34 0
18 33 -34 0
18 -33 34 0
18 -33 -34 0
-19 -15 -7 0
-7 35 36 0
-7 35 -36 0
-7 -35 36 0
-7 -35 -36 0
-11 1 37 0
-11 1 -37 0
-17 38 39 0
-17 38 -39 0
-17 -38 39 0
-17 -38 -39 0
1 40 41 0
1 40 -41 0
1 -40 41 0
1 -40 -41 0
-12 18 -1 0
-18 13 42 0
-42 6 -2 0
-6 5 43 0
-43 -2 44 0
-44 -14 12 0
-3 45 46 0
-3 45 -46 0
-3 -45 46 0
-3 -45 -46 0
-16 18 47 0
-16 18 -47 0
-10 -4 48 0
-48 -7 9 0
-7 2 49 0
-7 2 -49 0
-4 50 51 0
-4 50 -51 0
-4 -50 51 0
-4 -50 -51 0
3 52 53 0
3 52 -53 0
3 -52 53 0
3 -52 -53 0
11 -2 54 0
-54 7 -12 0
-1 17 55 0
-55 -5 18 0
-20 10 56 0
-20 10 -56 0
19 8 57 0
19 8 -57 0
16 3 58 0
16 3 -58 0
19 59 60 0
19 59 -60 0
19 -59 60 0
19 -59 -60 0
3 14 61 0
-61 -20 62 0
-62 12 11 0
14 20 63 0
-63 7 64 0
-64 -16 18 0
20 10 65 0
20 10 -65 0
12 -13 66 0
12 -13 -66 0
16 -18 -15 0
-20 19 -5 0
15 -2 1 0
-20 -8 4 0
14 11 12 0
2 -12 67 0
-67 1 -17 0
18 -3 68 0
-68 -20 69 0
-69 -11 -16 0
1 13 70 0
1 13 -70 0
-5 2 71 0
-71 8 18 0
-6 72 73 0
-6 72 -73 0
-6 -72 73 0
-6 -72 -73 0
17 74 75 0
17 74 -75 0
17 -74 75 0
17 -74 -75 0
-6 8 76 0
-6 8 -76 0
18 77 78 0
18 77 -78 0
18 -77 78 0
18 -77 -78 0
8 79 80 0
8 79 -80 0
8 -79 80 0
8 -79 -80 0
17 81 82 0
17 81 -82 0
17 -81 82 0
17 -81 -82 0
17 6 5 0
12 -3 83 0
-83 16 84 0
-84 -18 6 0
4 -20 85 0
-85 -1 86 0
-86 -6 -15 0
11 9 2 0
-12 87 88 0
-12 87 -88 0
-12 -87 88 0
-12 -87 -88 0
-8 -5 89 0
-89 1 15 0
-15 19 90 0
-90 -4 7 0
-18 1 91 0
-18 1 -91 0
-3 5 92 0
-92 14 93 0
-93 4 -20 0
4 94 95 0
4 94 -95 0
4 -94 95 0
4 -94 -95 0
15 -14 96 0
-96 5 97 0
-97 2 18 0
4 7 1 0
-2 -6 98 0
-2 -6 -98 0
-3 -8 99 0
-99 18 17 0
18 -15 100 0
-100 -9 101 0
-101 -11 -2 0
3 17 102 0
3 17 -102 0
20 18 103 0
20 18 -103 0
7 104 105 0
7 104 -105 0
7 -104 105 0
7 -104 -105 0
18 106 107 0
18 106 -107 0
18 -106 107 0
18 -106 -107 0
-8 -10 108 0
-108 19 -14 0
8 7 3 0
11 2 109 0
-109 -1 -7 0
-14 -11 110 0
-110 -3 -1 0
1 -15 111 0
1 -15 -111 0
20 -18 112 0
-112 -14 1 0
-20 113 114 0
-20 113 -114 0
-20 -113 114 0
-20 -113 -114 0
-7 -19 115 0
-115 4 -16 0
-14 116 117 0
-14 116 -117 0
-14 -116 117 0
-14 -116 -117 0
-2 18 118 0
-2 18 -118 0
12 1 119 0
-119 -13 120 0
-120 18 -5 0
